p cnf 20 17
-1 19 0 
-2 19 0 
-3 19 0 
-4 6 11 19 0 
-5 19 0 
-6 4 11 -7 19 0 
-8 19 0 
-9 20 -19 0 
-10 -8 19 0 
-11 4 6 19 0 
-12 19 0 
-13 19 0 
-10 19 0 
-10 -7 19 0 
-14 16 -15 20 -19 0 
-16 14 20 -19 0 
-17 -14 16 -18 20 -19 0 
